\ Model Cl_50_Ins_6.lp
\ LP format - for model browsing. Use MPS format to capture full model detail.
Maximize
 
Subject To
 obj1: y[0] = 0
 obj2: y[1] = 0
 obj1_Exp: - y[0] + 99 x[0] + 99 x[1] + 98 x[2] + 98 x[3] + 96 x[4]
   + 92 x[5] + 91 x[6] + 91 x[7] + 88 x[8] + 87 x[9] + 85 x[10] + 85 x[11]
   + 82 x[12] + 80 x[13] + 79 x[14] + 77 x[15] + 76 x[16] + 71 x[17]
   + 68 x[18] + 68 x[19] + 67 x[20] + 67 x[21] + 66 x[22] + 64 x[23]
   + 60 x[24] + 60 x[25] + 58 x[26] + 56 x[27] + 48 x[28] + 46 x[29]
   + 45 x[30] + 39 x[31] + 38 x[32] + 38 x[33] + 35 x[34] + 34 x[35]
   + 30 x[36] + 30 x[37] + 24 x[38] + 21 x[39] + 20 x[40] + 20 x[41]
   + 16 x[42] + 16 x[43] + 11 x[44] + 9 x[45] + 9 x[46] + 8 x[47] + 3 x[48]
   + 2 x[49] = 0
 obj2_Exp: - y[1] + 76 x[0] + 2 x[1] + 28 x[2] + 45 x[3] + 46 x[4]
   + 82 x[5] + 60 x[6] + 58 x[7] + 20 x[8] + 3 x[9] + 50 x[10] + 94 x[11]
   + 86 x[12] + 83 x[13] + 10 x[14] + 78 x[15] + 22 x[16] + 67 x[17]
   + 99 x[18] + 53 x[19] + 58 x[20] + 8 x[21] + 97 x[22] + 11 x[23]
   + 12 x[24] + 75 x[25] + 89 x[26] + 97 x[27] + 86 x[28] + 3 x[29]
   + 88 x[30] + 88 x[31] + 14 x[32] + 25 x[33] + 27 x[34] + 97 x[35]
   + 30 x[36] + 2 x[37] + 93 x[38] + 79 x[39] + 18 x[40] + 83 x[41]
   + 26 x[42] + 5 x[43] + 6 x[44] + 43 x[45] + 28 x[46] + 26 x[47]
   + 55 x[48] + 70 x[49] = 0
 Budget: 109 x[0] + 109 x[1] + 108 x[2] + 108 x[3] + 106 x[4] + 102 x[5]
   + 101 x[6] + 101 x[7] + 98 x[8] + 97 x[9] + 95 x[10] + 95 x[11]
   + 92 x[12] + 90 x[13] + 89 x[14] + 87 x[15] + 86 x[16] + 81 x[17]
   + 78 x[18] + 78 x[19] + 77 x[20] + 77 x[21] + 76 x[22] + 74 x[23]
   + 70 x[24] + 70 x[25] + 68 x[26] + 66 x[27] + 58 x[28] + 56 x[29]
   + 55 x[30] + 49 x[31] + 48 x[32] + 48 x[33] + 45 x[34] + 44 x[35]
   + 40 x[36] + 40 x[37] + 34 x[38] + 31 x[39] + 30 x[40] + 30 x[41]
   + 26 x[42] + 26 x[43] + 21 x[44] + 19 x[45] + 19 x[46] + 18 x[47]
   + 13 x[48] + 12 x[49] <= 1621
Bounds
Binaries
 x[0] x[1] x[2] x[3] x[4] x[5] x[6] x[7] x[8] x[9] x[10] x[11] x[12] x[13]
 x[14] x[15] x[16] x[17] x[18] x[19] x[20] x[21] x[22] x[23] x[24] x[25]
 x[26] x[27] x[28] x[29] x[30] x[31] x[32] x[33] x[34] x[35] x[36] x[37]
 x[38] x[39] x[40] x[41] x[42] x[43] x[44] x[45] x[46] x[47] x[48] x[49]
Generals
 y[0] y[1]
End
